c random cnf
p cnf 50 50
38 47 0
-27 44 0
41 48 0
-30 -41 0
9 -23 0
-38 -50 0
1 -33 0
-23 44 0
27 -30 0
13 -39 0
-12 -43 0
9 14 0
27 -32 0
-21 -24 0
-22 -40 0
11 -40 0
-31 42 0
6 11 0
-22 40 0
-10 28 0
-11 -42 0
23 -32 0
-8 43 0
-22 34 0
16 30 0
-1 39 0
28 -41 0
-16 -36 0
-17 39 0
-16 20 0
28 38 0
16 38 0
-22 35 0
20 -27 0
-6 -22 0
36 -45 0
-43 46 0
16 -30 0
-6 -32 0
30 45 0
-15 -22 0
31 -37 0
-22 -45 0
23 -48 0
16 31 0
12 -47 0
-27 45 0
3 49 0
-26 29 0
18 -47 0
